% Auto-generated by scripts/generate_dzn.py
% problem_type   = regex
% instance       = regex_0
% source_json    = instances_json/1_medium_blowup/regex_0.json
% blowup         = 9.923076923076923
% representation = DFA

mode = 0;

var_count = 14;
Q = 129;
S = 2;
q0 = 1;
F = {89, 90, 91, 92, 93, 94, 95, 96, 97, 98, 99, 100, 101, 102, 103, 104, 105, 106, 107, 108, 109, 110, 111, 112, 113, 114, 115, 116, 117, 118, 119, 120, 121, 122, 123, 124, 125, 126, 127, 128, 129};
d_dfa = array2d(1..129, 1..2, [
  2, 1,
  3, 1,
  3, 4,
  6, 5,
  8, 7,
  9, 7,
  11, 10,
  12, 10,
  12, 13,
  15, 14,
  16, 14,
  16, 17,
  19, 18,
  21, 20,
  22, 20,
  22, 23,
  25, 24,
  27, 26,
  28, 26,
  30, 29,
  31, 29,
  31, 32,
  34, 33,
  36, 35,
  37, 35,
  39, 38,
  40, 38,
  40, 41,
  43, 42,
  44, 42,
  44, 45,
  47, 46,
  49, 48,
  50, 48,
  52, 51,
  53, 51,
  53, 54,
  56, 55,
  57, 55,
  57, 58,
  60, 59,
  62, 61,
  63, 61,
  63, 64,
  66, 65,
  68, 67,
  69, 67,
  71, 70,
  72, 70,
  72, 73,
  75, 74,
  76, 74,
  76, 77,
  79, 78,
  81, 80,
  82, 80,
  82, 83,
  85, 84,
  87, 86,
  88, 86,
  90, 89,
  91, 89,
  91, 92,
  94, 93,
  96, 95,
  97, 95,
  99, 98,
  100, 98,
  100, 101,
  103, 102,
  104, 102,
  104, 105,
  107, 106,
  109, 108,
  110, 108,
  110, 111,
  113, 112,
  115, 114,
  116, 114,
  118, 117,
  119, 117,
  119, 120,
  122, 121,
  124, 123,
  125, 123,
  127, 126,
  128, 126,
  128, 129,
  2, 1,
  3, 1,
  3, 4,
  6, 5,
  8, 7,
  9, 7,
  11, 10,
  12, 10,
  12, 13,
  15, 14,
  16, 14,
  16, 17,
  19, 18,
  21, 20,
  22, 20,
  22, 23,
  25, 24,
  27, 26,
  28, 26,
  30, 29,
  31, 29,
  31, 32,
  34, 33,
  36, 35,
  37, 35,
  39, 38,
  40, 38,
  40, 41,
  43, 42,
  44, 42,
  44, 45,
  47, 46,
  49, 48,
  50, 48,
  52, 51,
  53, 51,
  53, 54,
  56, 55,
  57, 55,
  57, 58,
  60, 59
]);
d_nfa = array2d(1..129, 1..2, [
  {}, {},
  {}, {},
  {}, {},
  {}, {},
  {}, {},
  {}, {},
  {}, {},
  {}, {},
  {}, {},
  {}, {},
  {}, {},
  {}, {},
  {}, {},
  {}, {},
  {}, {},
  {}, {},
  {}, {},
  {}, {},
  {}, {},
  {}, {},
  {}, {},
  {}, {},
  {}, {},
  {}, {},
  {}, {},
  {}, {},
  {}, {},
  {}, {},
  {}, {},
  {}, {},
  {}, {},
  {}, {},
  {}, {},
  {}, {},
  {}, {},
  {}, {},
  {}, {},
  {}, {},
  {}, {},
  {}, {},
  {}, {},
  {}, {},
  {}, {},
  {}, {},
  {}, {},
  {}, {},
  {}, {},
  {}, {},
  {}, {},
  {}, {},
  {}, {},
  {}, {},
  {}, {},
  {}, {},
  {}, {},
  {}, {},
  {}, {},
  {}, {},
  {}, {},
  {}, {},
  {}, {},
  {}, {},
  {}, {},
  {}, {},
  {}, {},
  {}, {},
  {}, {},
  {}, {},
  {}, {},
  {}, {},
  {}, {},
  {}, {},
  {}, {},
  {}, {},
  {}, {},
  {}, {},
  {}, {},
  {}, {},
  {}, {},
  {}, {},
  {}, {},
  {}, {},
  {}, {},
  {}, {},
  {}, {},
  {}, {},
  {}, {},
  {}, {},
  {}, {},
  {}, {},
  {}, {},
  {}, {},
  {}, {},
  {}, {},
  {}, {},
  {}, {},
  {}, {},
  {}, {},
  {}, {},
  {}, {},
  {}, {},
  {}, {},
  {}, {},
  {}, {},
  {}, {},
  {}, {},
  {}, {},
  {}, {},
  {}, {},
  {}, {},
  {}, {},
  {}, {},
  {}, {},
  {}, {},
  {}, {},
  {}, {},
  {}, {},
  {}, {},
  {}, {},
  {}, {},
  {}, {},
  {}, {},
  {}, {},
  {}, {},
  {}, {},
  {}, {},
  {}, {},
  {}, {},
  {}, {}
]);
